c A SAT instance generated from a 2-CNF formula that had 16 clauses and 6 variables
p cnf 6 16
-1 -3 0
6 -5 0
-6 3 0
2 6 0
-1 -4 0
-2 -6 0
3 -2 0
-4 -6 0
2 -6 0
3 -6 0
2 6 0
2 6 0
1 6 0
-1 -6 0
-6 2 0
-6 2 0
